\ENCODING=ISO-8859-1
\Problem name: TSP

Minimize
 obj1: 353.764713419333 x1 + 883.003149339342 x2 + 1721.63367950739 x3
       + 1713.04647928908 x4 + 1241.92625637037 x5 + 655.482991589414 x6
       + 13.6928989844993 x7 + 794.975210549675 x8 + 694.166674771202 x9
       + 318.296107806549 x10 + 634.038485521583 x11 + 774.268848004249 x12
       + 659.482713909106 x13 + 117.32810560277 x14 + 549.280407501209 x15
       + 1494.52071681678 x16 + 1645.11358504925 x17 + 362.637572452955 x18
       + 9.07058825485929 x19 + 60.0518737225873 x20 + 1364.96177413424 x21
       + 710.556870394917 x22 + 1371.32428420471 x23 + 1917.37296702586 x24
       + 1351.17542669182 x25 + 572.873915341957 x26 + 348.20342369431 x27
       + 797.393121128509 x28 + 752.398568713276 x29 + 659.862317450125 x30
       + 831.248423184061 x31 + 858.158066570895 x32 + 552.861027764012 x33
       + 298.569668394024 x34 + 214.263009663548 x35 + 1380.8491362012 x36
       + 1303.74269433457 x37 + 289.069739377057 x38 + 359.786725037081 x39
       + 397.08279908542 x40 + 1179.05347713149 x41 + 1002.11451982645 x42
       + 1313.59979282198 x43 + 1855.03787499485 x44 + 1234.82366968905 x45
       + 870.391814301882 x46 + 1470.57177191116 x47 + 411.663100263517 x48
       + 966.761893652101 x49 + 661.058709345487 x50 + 461.674955525273 x51
       + 231.006575572356 x52 + 925.192864537338 x53 + 745.946456389461 x54
       + 1479.40554944131 x55 + 1022.53112176892 x56 + 524.657232195929 x57
       + 890.814978133726 x58 + 940.971451466122 x59 + 491.691369172271 x60
       + 563.084115013743 x61 + 857.010711341224 x62 + 1172.58911017262 x63
       + 1717.66083622631 x64 + 1120.91775701659 x65 + 1332.01766213307 x66
       + 1940.63008978852 x67 + 1503.19555534348 x68 + 1294.31383119831 x69
       + 1228.31237259015 x70 + 1629.75371537715 x71 + 1173.53025952631 x72
       + 499.425512397453 x73 + 93.3435159033968 x74 + 1449.66240688689 x75
       + 1726.55121904923 x76 + 1750.81429992161 x77 + 607.97303694827 x78
       + 614.138653073202 x79 + 1372.98637885676 x80 + 1720.67815722275 x81
       + 1158.83783111542 x82 + 1322.15953794097 x83 + 1419.68401061455 x84
       + 1257.29059330568 x85 + 1217.97814781601 x86 + 1495.01707637077 x87
       + 1741.98141197068 x88 + 1705.0782427292 x89 + 543.529581529633 x90
       + 625.020280549735 x91 + 1784.64933527879 x92 + 1706.10524086786 x93
       + 1662.87225919021 x94 + 829.523471643633 x95 + 788.40186180161 x96
       + 1254.61398650155 x97 + 556.307698267318 x98 + 1724.18905228412 x99
       + 1184.90216150916 x100 + 1477.84518074145 x101 + 1652.90649940039 x102
       + 1896.53462216695 x103 + 1183.40819647596 x104 + 1264.42168533794 x105
       + 376.8605187784 x106 + 833.792093912211 x107 + 1585.49908354208 x108
       + 1234.47676838623 x109 + 1186.05029246951 x110 + 1400.90946914398 x111
       + 663.5334386329 x112 + 237.474770028833 x113 + 1306.74025905319 x114
       + 893.083285991155 x115 + 1287.89002135342 x116 + 1405.47937507925 x117
       + 1121.48401269868 x118 + 542.121249133232 x119 + 489.89232095557 x120
       + 861.722780314687 x121 + 1081.32238900416 x122 + 849.96111524405 x123
       + 653.01056798903 x124 + 635.289137907711 x125 + 1547.11370471503 x126
       + 805.762974245624 x127 + 683.023470238991 x128 + 320.026025865118 x129
       + 626.589125096228 x130 + 763.942412022461 x131 + 646.792790239315 x132
       + 123.595614687025 x133 + 546.146457845585 x134 + 1505.25033889572 x135
       + 1643.28857288061 x136 + 350.298030660696 x137 + 21.4315426637129 x138
       + 72.2560220754902 x139 + 1352.27801870702 x140 + 1486.81496301248 x141
       + 945.599637483935 x142 + 1382.88249768048 x143 + 1566.54473798539 x144
       + 1349.24970421049 x145 + 696.612261709101 x146 + 726.022451004193 x147
       + 700.546177433703 x148 + 1040.86530809062 x149 + 1059.15839385829 x150
       + 790.12356848907 x151 + 757.167047701008 x152 + 1668.94461124842 x153
       + 619.953075587325 x154 + 250.397234618649 x155 + 107.809987834436 x156
       + 290.472341530498 x157 + 791.435600349496 x158 + 909.944372902089 x159
       + 1816.46857718302 x160 + 1383.38745507957 x161 + 464.913196216959 x162
       + 699.421900963229 x163 + 735.860744736474 x164 + 727.049932092952 x165
       + 439.883347760682 x166 + 652.230674050129 x167 + 744.961226219488 x168
       + 419.620558993902 x169 + 864.292111706823 x170 + 1551.26157206416 x171
       + 1962.28192909574 x172 + 548.990351711793 x173 + 314.60074881617 x174
       + 298.436592094426 x175 + 1340.21636390572 x176 + 230.139991052681 x177
       + 514.686487849999 x178 + 748.984758639021 x179 + 1029.84500030561 x180
       + 1778.36148775277 x181 + 1577.88571328932 x182 + 563.115549524673 x183
       + 636.183936090195 x184 + 654.496715876573 x185 + 909.862934432732 x186
       + 384.188687464163 x187 + 878.020650098301 x188 + 1016.32703429447 x189
       + 1737.13674906992 x190 + 1359.00911345919 x191 + 570.248414104863 x192
       + 778.738828236279 x193 + 810.423822103012 x194 + 689.374535884437 x195
       + 714.616891102107 x196 + 658.435542814589 x197 + 1677.39070768048 x198
       + 1240.25593625883 x199 + 312.098504123135 x200 + 667.078776799046 x201
       + 716.270022804107 x202 + 707.398012193359 x203 + 467.26775558576 x204
       + 1392.60702925288 x205 + 1544.83616681174 x206 + 404.337089277867 x207
       + 116.776052113384 x208 + 122.420747969078 x209 + 1415.84823206899 x210
       + 1192.7194845877 x211 + 1099.00207612931 x212 + 469.304193376841 x213
       + 554.032591085719 x214 + 582.44191761096 x215 + 1138.63770682646 x216
       + 462.133717699491 x217 + 1660.96147496499 x218 + 1489.63723097844 x219
       + 1454.78312621017 x220 + 1096.54304261856 x221 + 1422.1774608457 x222
       + 1648.89158702417 x223 + 1666.18772635097 x224 + 671.019457045894 x225
       + 370.636573974666 x226 + 421.549269300466 x227 + 1013.85631112714 x228
       + 51.9986288161579 x229 + 1372.37238104318 x230 + 1420.3189446742 x231
Subject To
 c1:  x1 + x2 + x3 + x4 + x5 + x6 + x7 + x8 + x9 + x10 + x11 + x12 + x13 + x14
      + x15 + x16 + x17 + x18 + x19 + x20 + x21  = 2
 c2:  x1 + x22 + x23 + x24 + x25 + x26 + x27 + x28 + x29 + x30 + x31 + x32
      + x33 + x34 + x35 + x36 + x37 + x38 + x39 + x40 + x41  = 2
 c3:  x2 + x22 + x42 + x43 + x44 + x45 + x46 + x47 + x48 + x49 + x50 + x51
      + x52 + x53 + x54 + x55 + x56 + x57 + x58 + x59 + x60  = 2
 c4:  x3 + x23 + x42 + x61 + x62 + x63 + x64 + x65 + x66 + x67 + x68 + x69
      + x70 + x71 + x72 + x73 + x74 + x75 + x76 + x77 + x78  = 2
 c5:  x4 + x24 + x43 + x61 + x79 + x80 + x81 + x82 + x83 + x84 + x85 + x86
      + x87 + x88 + x89 + x90 + x91 + x92 + x93 + x94 + x95  = 2
 c6:  x5 + x25 + x44 + x62 + x79 + x96 + x97 + x98 + x99 + x100 + x101 + x102
      + x103 + x104 + x105 + x106 + x107 + x108 + x109 + x110 + x111  = 2
 c7:  x6 + x26 + x45 + x63 + x80 + x96 + x112 + x113 + x114 + x115 + x116
      + x117 + x118 + x119 + x120 + x121 + x122 + x123 + x124 + x125 + x126
       = 2
 c8:  x7 + x27 + x46 + x64 + x81 + x97 + x112 + x127 + x128 + x129 + x130
      + x131 + x132 + x133 + x134 + x135 + x136 + x137 + x138 + x139 + x140
       = 2
 c9:  x8 + x28 + x47 + x65 + x82 + x98 + x113 + x127 + x141 + x142 + x143
      + x144 + x145 + x146 + x147 + x148 + x149 + x150 + x151 + x152 + x153
       = 2
 c10: x9 + x29 + x48 + x66 + x83 + x99 + x114 + x128 + x141 + x154 + x155
      + x156 + x157 + x158 + x159 + x160 + x161 + x162 + x163 + x164 + x165
       = 2
 c11: x10 + x30 + x49 + x67 + x84 + x100 + x115 + x129 + x142 + x154 + x166
      + x167 + x168 + x169 + x170 + x171 + x172 + x173 + x174 + x175 + x176
       = 2
 c12: x11 + x31 + x50 + x68 + x85 + x101 + x116 + x130 + x143 + x155 + x166
      + x177 + x178 + x179 + x180 + x181 + x182 + x183 + x184 + x185 + x186
       = 2
 c13: x12 + x32 + x51 + x69 + x86 + x102 + x117 + x131 + x144 + x156 + x167
      + x177 + x187 + x188 + x189 + x190 + x191 + x192 + x193 + x194 + x195
       = 2
 c14: x13 + x33 + x52 + x70 + x87 + x103 + x118 + x132 + x145 + x157 + x168
      + x178 + x187 + x196 + x197 + x198 + x199 + x200 + x201 + x202 + x203
       = 2
 c15: x14 + x34 + x53 + x71 + x88 + x104 + x119 + x133 + x146 + x158 + x169
      + x179 + x188 + x196 + x204 + x205 + x206 + x207 + x208 + x209 + x210
       = 2
 c16: x15 + x35 + x54 + x72 + x89 + x105 + x120 + x134 + x147 + x159 + x170
      + x180 + x189 + x197 + x204 + x211 + x212 + x213 + x214 + x215 + x216
       = 2
 c17: x16 + x36 + x55 + x73 + x90 + x106 + x121 + x135 + x148 + x160 + x171
      + x181 + x190 + x198 + x205 + x211 + x217 + x218 + x219 + x220 + x221
       = 2
 c18: x17 + x37 + x56 + x74 + x91 + x107 + x122 + x136 + x149 + x161 + x172
      + x182 + x191 + x199 + x206 + x212 + x217 + x222 + x223 + x224 + x225
       = 2
 c19: x18 + x38 + x57 + x75 + x92 + x108 + x123 + x137 + x150 + x162 + x173
      + x183 + x192 + x200 + x207 + x213 + x218 + x222 + x226 + x227 + x228
       = 2
 c20: x19 + x39 + x58 + x76 + x93 + x109 + x124 + x138 + x151 + x163 + x174
      + x184 + x193 + x201 + x208 + x214 + x219 + x223 + x226 + x229 + x230
       = 2
 c21: x20 + x40 + x59 + x77 + x94 + x110 + x125 + x139 + x152 + x164 + x175
      + x185 + x194 + x202 + x209 + x215 + x220 + x224 + x227 + x229 + x231
       = 2
 c22: x21 + x41 + x60 + x78 + x95 + x111 + x126 + x140 + x153 + x165 + x176
      + x186 + x195 + x203 + x210 + x216 + x221 + x225 + x228 + x230 + x231
       = 2
 c23: x7 + x10 + x14 + x19 + x20 + x129 + x133 + x138 + x139 + x169 + x174
      + x175 + x208 + x209 + x229 <= 5
 c24: x22 + x23 + x24 + x25 + x26 + x28 + x33 + x35 + x36 + x37 + x38 + x41
      + x42 + x43 + x44 + x45 + x47 + x52 + x54 + x55 + x56 + x57 + x60 + x61
      + x62 + x63 + x65 + x70 + x72 + x73 + x74 + x75 + x78 + x79 + x80 + x82
      + x87 + x89 + x90 + x91 + x92 + x95 + x96 + x98 + x103 + x105 + x106
      + x107 + x108 + x111 + x113 + x118 + x120 + x121 + x122 + x123 + x126
      + x145 + x147 + x148 + x149 + x150 + x153 + x197 + x198 + x199 + x200
      + x203 + x211 + x212 + x213 + x216 + x217 + x218 + x221 + x222 + x225
      + x228 <= 12
 c25: x155 + x156 + x177 <= 2
 c26: x7 + x19 + x138 <= 2
 c27: x22 + x23 + x24 + x25 + x26 + x28 + x29 + x30 + x31 + x32 + x33 + x34
      + x35 + x36 + x37 + x38 + x40 + x41 + x42 + x43 + x44 + x45 + x47 + x48
      + x49 + x50 + x51 + x52 + x53 + x54 + x55 + x56 + x57 + x59 + x60 + x61
      + x62 + x63 + x65 + x66 + x67 + x68 + x69 + x70 + x71 + x72 + x73 + x74
      + x75 + x77 + x78 + x79 + x80 + x82 + x83 + x84 + x85 + x86 + x87 + x88
      + x89 + x90 + x91 + x92 + x94 + x95 + x96 + x98 + x99 + x100 + x101
      + x102 + x103 + x104 + x105 + x106 + x107 + x108 + x110 + x111 + x113
      + x114 + x115 + x116 + x117 + x118 + x119 + x120 + x121 + x122 + x123
      + x125 + x126 + x141 + x142 + x143 + x144 + x145 + x146 + x147 + x148
      + x149 + x150 + x152 + x153 + x154 + x155 + x156 + x157 + x158 + x159
      + x160 + x161 + x162 + x164 + x165 + x166 + x167 + x168 + x169 + x170
      + x171 + x172 + x173 + x175 + x176 + x177 + x178 + x179 + x180 + x181
      + x182 + x183 + x185 + x186 + x187 + x188 + x189 + x190 + x191 + x192
      + x194 + x195 + x196 + x197 + x198 + x199 + x200 + x202 + x203 + x204
      + x205 + x206 + x207 + x209 + x210 + x211 + x212 + x213 + x215 + x216
      + x217 + x218 + x220 + x221 + x222 + x224 + x225 + x227 + x228 + x231
      <= 18
 c28: x7 + x14 + x19 + x20 + x133 + x138 + x139 + x208 + x209 + x229 <= 4
 c29: x22 + x23 + x24 + x25 + x26 + x28 + x29 + x30 + x31 + x32 + x33 + x35
      + x36 + x37 + x38 + x41 + x42 + x43 + x44 + x45 + x47 + x48 + x49 + x50
      + x51 + x52 + x54 + x55 + x56 + x57 + x60 + x61 + x62 + x63 + x65 + x66
      + x67 + x68 + x69 + x70 + x72 + x73 + x74 + x75 + x78 + x79 + x80 + x82
      + x83 + x84 + x85 + x86 + x87 + x89 + x90 + x91 + x92 + x95 + x96 + x98
      + x99 + x100 + x101 + x102 + x103 + x105 + x106 + x107 + x108 + x111
      + x113 + x114 + x115 + x116 + x117 + x118 + x120 + x121 + x122 + x123
      + x126 + x141 + x142 + x143 + x144 + x145 + x147 + x148 + x149 + x150
      + x153 + x154 + x155 + x156 + x157 + x159 + x160 + x161 + x162 + x165
      + x166 + x167 + x168 + x170 + x171 + x172 + x173 + x176 + x177 + x178
      + x180 + x181 + x182 + x183 + x186 + x187 + x189 + x190 + x191 + x192
      + x195 + x197 + x198 + x199 + x200 + x203 + x211 + x212 + x213 + x216
      + x217 + x218 + x221 + x222 + x225 + x228 <= 16
Bounds
 0 <= x1 <= 1
 0 <= x2 <= 1
 0 <= x3 <= 1
 0 <= x4 <= 1
 0 <= x5 <= 1
 0 <= x6 <= 1
 0 <= x7 <= 1
 0 <= x8 <= 1
 0 <= x9 <= 1
 0 <= x10 <= 1
 0 <= x11 <= 1
 0 <= x12 <= 1
 0 <= x13 <= 1
 0 <= x14 <= 1
 0 <= x15 <= 1
 0 <= x16 <= 1
 0 <= x17 <= 1
 0 <= x18 <= 1
 0 <= x19 <= 1
 0 <= x20 <= 1
 0 <= x21 <= 1
 0 <= x22 <= 1
 0 <= x23 <= 1
 0 <= x24 <= 1
 0 <= x25 <= 1
 0 <= x26 <= 1
 0 <= x27 <= 1
 0 <= x28 <= 1
 0 <= x29 <= 1
 0 <= x30 <= 1
 0 <= x31 <= 1
 0 <= x32 <= 1
 0 <= x33 <= 1
 0 <= x34 <= 1
 0 <= x35 <= 1
 0 <= x36 <= 1
 0 <= x37 <= 1
 0 <= x38 <= 1
 0 <= x39 <= 1
 0 <= x40 <= 1
 0 <= x41 <= 1
 0 <= x42 <= 1
 0 <= x43 <= 1
 0 <= x44 <= 1
 0 <= x45 <= 1
 0 <= x46 <= 1
 0 <= x47 <= 1
 0 <= x48 <= 1
 0 <= x49 <= 1
 0 <= x50 <= 1
 0 <= x51 <= 1
 0 <= x52 <= 1
 0 <= x53 <= 1
 0 <= x54 <= 1
 0 <= x55 <= 1
 0 <= x56 <= 1
 0 <= x57 <= 1
 0 <= x58 <= 1
 0 <= x59 <= 1
 0 <= x60 <= 1
 0 <= x61 <= 1
 0 <= x62 <= 1
 0 <= x63 <= 1
 0 <= x64 <= 1
 0 <= x65 <= 1
 0 <= x66 <= 1
 0 <= x67 <= 1
 0 <= x68 <= 1
 0 <= x69 <= 1
 0 <= x70 <= 1
 0 <= x71 <= 1
 0 <= x72 <= 1
 0 <= x73 <= 1
 0 <= x74 <= 1
 0 <= x75 <= 1
 0 <= x76 <= 1
 0 <= x77 <= 1
 0 <= x78 <= 1
 0 <= x79 <= 1
 0 <= x80 <= 1
 0 <= x81 <= 1
 0 <= x82 <= 1
 0 <= x83 <= 1
 0 <= x84 <= 1
 0 <= x85 <= 1
 0 <= x86 <= 1
 0 <= x87 <= 1
 0 <= x88 <= 1
 0 <= x89 <= 1
 0 <= x90 <= 1
 0 <= x91 <= 1
 0 <= x92 <= 1
 0 <= x93 <= 1
 0 <= x94 <= 1
 0 <= x95 <= 1
 0 <= x96 <= 1
 0 <= x97 <= 1
 0 <= x98 <= 1
 0 <= x99 <= 1
 0 <= x100 <= 1
 0 <= x101 <= 1
 0 <= x102 <= 1
 0 <= x103 <= 1
 0 <= x104 <= 1
 0 <= x105 <= 1
 0 <= x106 <= 1
 0 <= x107 <= 1
 0 <= x108 <= 1
 0 <= x109 <= 1
 0 <= x110 <= 1
 0 <= x111 <= 1
 0 <= x112 <= 1
 0 <= x113 <= 1
 0 <= x114 <= 1
 0 <= x115 <= 1
 0 <= x116 <= 1
 0 <= x117 <= 1
 0 <= x118 <= 1
 0 <= x119 <= 1
 0 <= x120 <= 1
 0 <= x121 <= 1
 0 <= x122 <= 1
 0 <= x123 <= 1
 0 <= x124 <= 1
 0 <= x125 <= 1
 0 <= x126 <= 1
 0 <= x127 <= 1
 0 <= x128 <= 1
 0 <= x129 <= 1
 0 <= x130 <= 1
 0 <= x131 <= 1
 0 <= x132 <= 1
 0 <= x133 <= 1
 0 <= x134 <= 1
 0 <= x135 <= 1
 0 <= x136 <= 1
 0 <= x137 <= 1
 0 <= x138 <= 1
 0 <= x139 <= 1
 0 <= x140 <= 1
 0 <= x141 <= 1
 0 <= x142 <= 1
 0 <= x143 <= 1
 0 <= x144 <= 1
 0 <= x145 <= 1
 0 <= x146 <= 1
 0 <= x147 <= 1
 0 <= x148 <= 1
 0 <= x149 <= 1
 0 <= x150 <= 1
 0 <= x151 <= 1
 0 <= x152 <= 1
 0 <= x153 <= 1
 0 <= x154 <= 1
 0 <= x155 <= 1
 0 <= x156 <= 1
 0 <= x157 <= 1
 0 <= x158 <= 1
 0 <= x159 <= 1
 0 <= x160 <= 1
 0 <= x161 <= 1
 0 <= x162 <= 1
 0 <= x163 <= 1
 0 <= x164 <= 1
 0 <= x165 <= 1
 0 <= x166 <= 1
 0 <= x167 <= 1
 0 <= x168 <= 1
 0 <= x169 <= 1
 0 <= x170 <= 1
 0 <= x171 <= 1
 0 <= x172 <= 1
 0 <= x173 <= 1
 0 <= x174 <= 1
 0 <= x175 <= 1
 0 <= x176 <= 1
 0 <= x177 <= 1
 0 <= x178 <= 1
 0 <= x179 <= 1
 0 <= x180 <= 1
 0 <= x181 <= 1
 0 <= x182 <= 1
 0 <= x183 <= 1
 0 <= x184 <= 1
 0 <= x185 <= 1
 0 <= x186 <= 1
 0 <= x187 <= 1
 0 <= x188 <= 1
 0 <= x189 <= 1
 0 <= x190 <= 1
 0 <= x191 <= 1
 0 <= x192 <= 1
 0 <= x193 <= 1
 0 <= x194 <= 1
 0 <= x195 <= 1
 0 <= x196 <= 1
 0 <= x197 <= 1
 0 <= x198 <= 1
 0 <= x199 <= 1
 0 <= x200 <= 1
 0 <= x201 <= 1
 0 <= x202 <= 1
 0 <= x203 <= 1
 0 <= x204 <= 1
 0 <= x205 <= 1
 0 <= x206 <= 1
 0 <= x207 <= 1
 0 <= x208 <= 1
 0 <= x209 <= 1
 0 <= x210 <= 1
 0 <= x211 <= 1
 0 <= x212 <= 1
 0 <= x213 <= 1
 0 <= x214 <= 1
 0 <= x215 <= 1
 0 <= x216 <= 1
 0 <= x217 <= 1
 0 <= x218 <= 1
 0 <= x219 <= 1
 0 <= x220 <= 1
 0 <= x221 <= 1
 0 <= x222 <= 1
 0 <= x223 <= 1
 0 <= x224 <= 1
 0 <= x225 <= 1
 0 <= x226 <= 1
 0 <= x227 <= 1
 0 <= x228 <= 1
 0 <= x229 <= 1
 0 <= x230 <= 1
 0 <= x231 <= 1
Binaries
 x1  x2  x3  x4  x5  x6  x7  x8  x9  x10  x11  x12  x13  x14  x15  x16  x17 
 x18  x19  x20  x21  x22  x23  x24  x25  x26  x27  x28  x29  x30  x31  x32 
 x33  x34  x35  x36  x37  x38  x39  x40  x41  x42  x43  x44  x45  x46  x47 
 x48  x49  x50  x51  x52  x53  x54  x55  x56  x57  x58  x59  x60  x61  x62 
 x63  x64  x65  x66  x67  x68  x69  x70  x71  x72  x73  x74  x75  x76  x77 
 x78  x79  x80  x81  x82  x83  x84  x85  x86  x87  x88  x89  x90  x91  x92 
 x93  x94  x95  x96  x97  x98  x99  x100  x101  x102  x103  x104  x105  x106 
 x107  x108  x109  x110  x111  x112  x113  x114  x115  x116  x117  x118  x119 
 x120  x121  x122  x123  x124  x125  x126  x127  x128  x129  x130  x131  x132 
 x133  x134  x135  x136  x137  x138  x139  x140  x141  x142  x143  x144  x145 
 x146  x147  x148  x149  x150  x151  x152  x153  x154  x155  x156  x157  x158 
 x159  x160  x161  x162  x163  x164  x165  x166  x167  x168  x169  x170  x171 
 x172  x173  x174  x175  x176  x177  x178  x179  x180  x181  x182  x183  x184 
 x185  x186  x187  x188  x189  x190  x191  x192  x193  x194  x195  x196  x197 
 x198  x199  x200  x201  x202  x203  x204  x205  x206  x207  x208  x209  x210 
 x211  x212  x213  x214  x215  x216  x217  x218  x219  x220  x221  x222  x223 
 x224  x225  x226  x227  x228  x229  x230  x231 
End
